% plconverted_random_s10_a20_c55.lp
% #const maxexpans=0. Command: clingo --outf=1 random_s10_a20_c55.lp solver.lp > plconverted_random_s10_a20_c55.lp 1

%clingo version 5.6.2
% Reading from random_s10_a20_c55.lp ...
% Solving...
% Answer: 1
%ANSWER
plan(20,up,0). plan(19,right,0). plan(18,up,0). plan(17,up,0). plan(16,up,0). plan(15,down,0). plan(14,stay,0). plan(13,down,0). plan(12,down,0). plan(11,right,0). plan(10,right,0). plan(9,down,0). plan(8,stay,0). plan(7,down,0). plan(6,up,0). plan(5,left,0). plan(4,down,0). plan(3,stay,0). plan(2,up,0). plan(1,down,0). plan(1,right,1). plan(2,stay,1). plan(3,right,1). plan(4,right,1). plan(5,left,1). plan(6,stay,1). plan(7,left,1). plan(8,stay,1). plan(9,down,1). plan(10,right,1). plan(11,up,1). plan(12,stay,1). plan(13,stay,1). plan(14,left,1). plan(15,down,1). plan(16,up,1). plan(17,up,1). plan(18,left,1). plan(19,right,1). plan(20,up,1). plan(20,up,2). plan(19,down,2). plan(18,up,2). plan(17,left,2). plan(16,up,2). plan(15,down,2). plan(14,stay,2). plan(13,stay,2). plan(12,down,2). plan(11,stay,2). plan(10,right,2). plan(9,right,2). plan(8,stay,2). plan(7,down,2). plan(6,down,2). plan(5,right,2). plan(4,right,2). plan(3,down,2). plan(2,stay,2). plan(1,right,2). plan(1,right,3). plan(2,down,3). plan(3,right,3). plan(4,down,3). plan(5,down,3). plan(6,stay,3). plan(7,down,3). plan(8,right,3). plan(9,right,3). plan(10,right,3). plan(11,stay,3). plan(12,left,3). plan(13,down,3). plan(14,down,3). plan(15,down,3). plan(16,up,3). plan(17,left,3). plan(18,stay,3). plan(19,right,3). plan(20,up,3). plan(20,right,4). plan(19,down,4). plan(18,down,4). plan(17,down,4). plan(16,left,4). plan(15,left,4). plan(14,down,4). plan(13,down,4). plan(12,down,4). plan(11,down,4). plan(10,down,4). plan(9,down,4). plan(8,right,4). plan(7,left,4). plan(6,stay,4). plan(5,down,4). plan(4,right,4). plan(3,right,4). plan(2,up,4). plan(1,right,4). plan(1,right,5). plan(2,up,5). plan(3,down,5). plan(4,down,5). plan(5,down,5). plan(6,up,5). plan(7,down,5). plan(8,right,5). plan(9,right,5). plan(10,stay,5). plan(11,right,5). plan(12,down,5). plan(13,right,5). plan(14,right,5). plan(15,down,5). plan(16,right,5). plan(17,left,5). plan(18,right,5). plan(19,right,5). plan(20,right,5). plan(20,stay,6). plan(19,right,6). plan(18,up,6). plan(17,down,6). plan(16,right,6). plan(15,down,6). plan(14,right,6). plan(13,right,6). plan(12,down,6). plan(11,right,6). plan(10,stay,6). plan(9,down,6). plan(8,down,6). plan(7,down,6). plan(6,left,6). plan(5,down,6). plan(4,right,6). plan(3,right,6). plan(2,up,6). plan(1,up,6). plan(1,stay,7). plan(2,up,7). plan(3,down,7). plan(4,right,7). plan(5,left,7). plan(6,left,7). plan(7,down,7). plan(8,right,7). plan(9,right,7). plan(10,right,7). plan(11,stay,7). plan(12,down,7). plan(13,right,7). plan(14,down,7). plan(15,down,7). plan(16,up,7). plan(17,down,7). plan(18,left,7). plan(19,down,7). plan(20,left,7). plan(20,down,8). plan(19,right,8). plan(18,left,8). plan(17,left,8). plan(16,up,8). plan(15,stay,8). plan(14,right,8). plan(13,right,8). plan(12,left,8). plan(11,down,8). plan(10,stay,8). plan(9,right,8). plan(8,down,8). plan(7,down,8). plan(6,up,8). plan(5,left,8). plan(4,down,8). plan(3,right,8). plan(2,left,8). plan(1,right,8). plan(1,up,9). plan(2,left,9). plan(3,right,9). plan(4,right,9). plan(5,down,9). plan(6,up,9). plan(7,stay,9). plan(8,right,9). plan(9,down,9). plan(10,left,9). plan(11,up,9). plan(12,left,9). plan(13,right,9). plan(14,down,9). plan(15,stay,9). plan(16,right,9). plan(17,down,9). plan(18,up,9). plan(19,right,9). plan(20,stay,9). plan(20,up,10). plan(19,stay,10). plan(18,up,10). plan(17,up,10). plan(16,up,10). plan(15,left,10). plan(14,right,10). plan(13,right,10). plan(12,stay,10). plan(11,left,10). plan(10,stay,10). plan(9,down,10). plan(8,right,10). plan(7,up,10). plan(6,right,10). plan(5,stay,10). plan(4,up,10). plan(3,down,10). plan(2,up,10). plan(1,right,10). plan(1,stay,11). plan(2,stay,11). plan(3,right,11). plan(4,right,11). plan(5,down,11). plan(6,left,11). plan(7,left,11). plan(8,down,11). plan(9,stay,11). plan(10,right,11). plan(11,right,11). plan(12,stay,11). plan(13,up,11). plan(14,right,11). plan(15,right,11). plan(16,down,11). plan(17,right,11). plan(18,left,11). plan(19,right,11). plan(20,up,11). plan(20,left,12). plan(19,up,12). plan(18,stay,12). plan(17,stay,12). plan(16,left,12). plan(15,left,12). plan(14,down,12). plan(13,up,12). plan(12,down,12). plan(11,down,12). plan(10,up,12). plan(9,left,12). plan(8,right,12). plan(7,right,12). plan(6,down,12). plan(5,left,12). plan(4,stay,12). plan(3,right,12). plan(2,down,12). plan(1,stay,12). plan(1,up,13). plan(2,left,13). plan(3,up,13). plan(4,right,13). plan(5,stay,13). plan(6,down,13). plan(7,left,13). plan(8,right,13). plan(9,stay,13). plan(10,right,13). plan(11,stay,13). plan(12,down,13). plan(13,right,13). plan(14,down,13). plan(15,stay,13). plan(16,down,13). plan(17,up,13). plan(18,right,13). plan(19,down,13). plan(20,left,13). plan(20,left,14). plan(19,left,14). plan(18,down,14). plan(17,up,14). plan(16,down,14). plan(15,right,14). plan(14,left,14). plan(13,stay,14). plan(12,left,14). plan(11,right,14). plan(10,stay,14). plan(9,down,14). plan(8,up,14). plan(7,right,14). plan(6,left,14). plan(5,left,14). plan(4,down,14). plan(3,right,14). plan(2,left,14). plan(1,stay,14). plan(1,right,15). plan(2,left,15). plan(3,down,15). plan(4,down,15). plan(5,left,15). plan(6,left,15). plan(7,down,15). plan(8,right,15). plan(9,right,15). plan(10,down,15). plan(11,up,15). plan(12,down,15). plan(13,up,15). plan(14,right,15). plan(15,left,15). plan(16,left,15). plan(17,up,15). plan(18,down,15). plan(19,up,15). plan(20,up,15). plan(20,left,16). plan(19,right,16). plan(18,left,16). plan(17,stay,16). plan(16,left,16). plan(15,up,16). plan(14,right,16). plan(13,up,16). plan(12,right,16). plan(11,right,16). plan(10,stay,16). plan(9,left,16). plan(8,down,16). plan(7,up,16). plan(6,left,16). plan(5,left,16). plan(4,stay,16). plan(3,left,16). plan(2,up,16). plan(1,left,16). plan(1,up,17). plan(2,left,17). plan(3,up,17). plan(4,up,17). plan(5,stay,17). plan(6,up,17). plan(7,left,17). plan(8,left,17). plan(9,down,17). plan(10,up,17). plan(11,up,17). plan(12,right,17). plan(13,up,17). plan(14,up,17). plan(15,down,17). plan(16,left,17). plan(17,up,17). plan(18,left,17). plan(19,stay,17). plan(20,up,17). plan(20,left,18). plan(19,down,18). plan(18,left,18). plan(17,left,18). plan(16,up,18). plan(15,up,18). plan(14,up,18). plan(13,up,18). plan(12,stay,18). plan(11,up,18). plan(10,up,18). plan(9,up,18). plan(8,left,18). plan(7,up,18). plan(6,left,18). plan(5,left,18). plan(4,left,18). plan(3,right,18). plan(2,up,18). plan(1,up,18). plan(1,up,19). plan(2,left,19). plan(3,down,19). plan(4,left,19). plan(5,up,19). plan(6,up,19). plan(7,down,19). plan(8,up,19). plan(9,down,19). plan(10,up,19). plan(11,up,19). plan(12,left,19). plan(13,right,19). plan(14,right,19). plan(15,left,19). plan(16,left,19). plan(17,left,19). plan(18,up,19). plan(19,down,19). plan(20,left,19). plan(20,up,20). plan(19,down,20). plan(18,left,20). plan(17,up,20). plan(16,up,20). plan(15,stay,20). plan(14,down,20). plan(13,up,20). plan(12,left,20). plan(11,right,20). plan(10,up,20). plan(9,stay,20). plan(8,right,20). plan(7,stay,20). plan(6,left,20). plan(5,stay,20). plan(4,down,20). plan(3,stay,20). plan(2,left,20). plan(1,right,20). plan(1,left,21). plan(2,up,21). plan(3,up,21). plan(4,left,21). plan(5,stay,21). plan(6,left,21). plan(7,down,21). plan(8,down,21). plan(9,right,21). plan(10,right,21). plan(11,up,21). plan(12,up,21). plan(13,down,21). plan(14,right,21). plan(15,left,21). plan(16,left,21). plan(17,left,21). plan(18,up,21). plan(19,down,21). plan(20,left,21). plan(20,stay,22). plan(19,stay,22). plan(18,left,22). plan(17,up,22). plan(16,left,22). plan(15,left,22). plan(14,down,22). plan(13,up,22). plan(12,left,22). plan(11,up,22). plan(10,up,22). plan(9,left,22). plan(8,right,22). plan(7,left,22). plan(6,up,22). plan(5,down,22). plan(4,down,22). plan(3,left,22). plan(2,up,22). plan(1,stay,22). plan(1,right,23). plan(2,right,23). plan(3,right,23). plan(4,down,23). plan(5,stay,23). plan(6,up,23). plan(7,left,23). plan(8,stay,23). plan(9,stay,23). plan(10,up,23). plan(11,up,23). plan(12,left,23). plan(13,stay,23). plan(14,stay,23). plan(15,left,23). plan(16,up,23). plan(17,left,23). plan(18,left,23). plan(19,up,23). plan(20,down,23). plan(20,stay,24). plan(19,down,24). plan(18,up,24). plan(17,left,24). plan(16,left,24). plan(15,left,24). plan(14,down,24). plan(13,up,24). plan(12,left,24). plan(11,right,24). plan(10,up,24). plan(9,right,24). plan(8,down,24). plan(7,left,24). plan(6,stay,24). plan(5,up,24). plan(4,down,24). plan(3,down,24). plan(2,stay,24). plan(1,up,24). occurs(object(robot,1),action(move,(0,0)),7). occurs(object(robot,1),action(move,(0,0)),11). occurs(object(robot,1),action(move,(0,0)),12). occurs(object(robot,1),action(move,(0,0)),14). occurs(object(robot,1),action(move,(0,0)),22). occurs(object(robot,2),action(move,(0,0)),1). occurs(object(robot,2),action(move,(0,0)),2). occurs(object(robot,2),action(move,(0,0)),11). occurs(object(robot,2),action(move,(0,0)),24). occurs(object(robot,3),action(move,(0,0)),0). occurs(object(robot,3),action(move,(0,0)),20). occurs(object(robot,4),action(move,(0,0)),12). occurs(object(robot,4),action(move,(0,0)),16). occurs(object(robot,5),action(move,(0,0)),10). occurs(object(robot,5),action(move,(0,0)),13). occurs(object(robot,5),action(move,(0,0)),17). occurs(object(robot,5),action(move,(0,0)),20). occurs(object(robot,5),action(move,(0,0)),21). occurs(object(robot,5),action(move,(0,0)),23). occurs(object(robot,6),action(move,(0,0)),1). occurs(object(robot,6),action(move,(0,0)),3). occurs(object(robot,6),action(move,(0,0)),4). occurs(object(robot,6),action(move,(0,0)),24). occurs(object(robot,7),action(move,(0,0)),9). occurs(object(robot,7),action(move,(0,0)),20). occurs(object(robot,8),action(move,(0,0)),0). occurs(object(robot,8),action(move,(0,0)),1). occurs(object(robot,8),action(move,(0,0)),2). occurs(object(robot,8),action(move,(0,0)),23). occurs(object(robot,9),action(move,(0,0)),11). occurs(object(robot,9),action(move,(0,0)),13). occurs(object(robot,9),action(move,(0,0)),20). occurs(object(robot,9),action(move,(0,0)),23). occurs(object(robot,10),action(move,(0,0)),5). occurs(object(robot,10),action(move,(0,0)),6). occurs(object(robot,10),action(move,(0,0)),8). occurs(object(robot,10),action(move,(0,0)),10). occurs(object(robot,10),action(move,(0,0)),14). occurs(object(robot,10),action(move,(0,0)),16). occurs(object(robot,11),action(move,(0,0)),2). occurs(object(robot,11),action(move,(0,0)),3). occurs(object(robot,11),action(move,(0,0)),7). occurs(object(robot,11),action(move,(0,0)),13). occurs(object(robot,12),action(move,(0,0)),1). occurs(object(robot,12),action(move,(0,0)),10). occurs(object(robot,12),action(move,(0,0)),11). occurs(object(robot,12),action(move,(0,0)),18). occurs(object(robot,13),action(move,(0,0)),1). occurs(object(robot,13),action(move,(0,0)),2). occurs(object(robot,13),action(move,(0,0)),14). occurs(object(robot,13),action(move,(0,0)),23). occurs(object(robot,14),action(move,(0,0)),0). occurs(object(robot,14),action(move,(0,0)),2). occurs(object(robot,14),action(move,(0,0)),23). occurs(object(robot,15),action(move,(0,0)),8). occurs(object(robot,15),action(move,(0,0)),9). occurs(object(robot,15),action(move,(0,0)),13). occurs(object(robot,15),action(move,(0,0)),20). occurs(object(robot,17),action(move,(0,0)),12). occurs(object(robot,17),action(move,(0,0)),16). occurs(object(robot,18),action(move,(0,0)),3). occurs(object(robot,18),action(move,(0,0)),12). occurs(object(robot,19),action(move,(0,0)),10). occurs(object(robot,19),action(move,(0,0)),17). occurs(object(robot,19),action(move,(0,0)),22). occurs(object(robot,20),action(move,(0,0)),6). occurs(object(robot,20),action(move,(0,0)),9). occurs(object(robot,20),action(move,(0,0)),22). occurs(object(robot,20),action(move,(0,0)),24). occurs(object(robot,1),action(move,(0,-1)),0). occurs(object(robot,2),action(move,(0,-1)),3). occurs(object(robot,2),action(move,(0,-1)),12). occurs(object(robot,3),action(move,(0,-1)),2). occurs(object(robot,3),action(move,(0,-1)),5). occurs(object(robot,3),action(move,(0,-1)),7). occurs(object(robot,3),action(move,(0,-1)),10). occurs(object(robot,3),action(move,(0,-1)),15). occurs(object(robot,3),action(move,(0,-1)),19). occurs(object(robot,3),action(move,(0,-1)),24). occurs(object(robot,4),action(move,(0,-1)),0). occurs(object(robot,4),action(move,(0,-1)),3). occurs(object(robot,4),action(move,(0,-1)),5). occurs(object(robot,4),action(move,(0,-1)),8). occurs(object(robot,4),action(move,(0,-1)),14). occurs(object(robot,4),action(move,(0,-1)),15). occurs(object(robot,4),action(move,(0,-1)),20). occurs(object(robot,4),action(move,(0,-1)),22). occurs(object(robot,4),action(move,(0,-1)),23). occurs(object(robot,4),action(move,(0,-1)),24). occurs(object(robot,5),action(move,(0,-1)),3). occurs(object(robot,5),action(move,(0,-1)),4). occurs(object(robot,5),action(move,(0,-1)),5). occurs(object(robot,5),action(move,(0,-1)),6). occurs(object(robot,5),action(move,(0,-1)),9). occurs(object(robot,5),action(move,(0,-1)),11). occurs(object(robot,5),action(move,(0,-1)),22). occurs(object(robot,6),action(move,(0,-1)),2). occurs(object(robot,6),action(move,(0,-1)),12). occurs(object(robot,6),action(move,(0,-1)),13). occurs(object(robot,7),action(move,(0,-1)),0). occurs(object(robot,7),action(move,(0,-1)),2). occurs(object(robot,7),action(move,(0,-1)),3). occurs(object(robot,7),action(move,(0,-1)),5). occurs(object(robot,7),action(move,(0,-1)),6). occurs(object(robot,7),action(move,(0,-1)),7). occurs(object(robot,7),action(move,(0,-1)),8). occurs(object(robot,7),action(move,(0,-1)),15). occurs(object(robot,7),action(move,(0,-1)),19). occurs(object(robot,7),action(move,(0,-1)),21). occurs(object(robot,8),action(move,(0,-1)),6). occurs(object(robot,8),action(move,(0,-1)),8). occurs(object(robot,8),action(move,(0,-1)),11). occurs(object(robot,8),action(move,(0,-1)),16). occurs(object(robot,8),action(move,(0,-1)),21). occurs(object(robot,8),action(move,(0,-1)),24). occurs(object(robot,9),action(move,(0,-1)),0). occurs(object(robot,9),action(move,(0,-1)),1). occurs(object(robot,9),action(move,(0,-1)),4). occurs(object(robot,9),action(move,(0,-1)),6). occurs(object(robot,9),action(move,(0,-1)),9). occurs(object(robot,9),action(move,(0,-1)),10). occurs(object(robot,9),action(move,(0,-1)),14). occurs(object(robot,9),action(move,(0,-1)),17). occurs(object(robot,9),action(move,(0,-1)),19). occurs(object(robot,10),action(move,(0,-1)),4). occurs(object(robot,10),action(move,(0,-1)),15). occurs(object(robot,11),action(move,(0,-1)),4). occurs(object(robot,11),action(move,(0,-1)),8). occurs(object(robot,11),action(move,(0,-1)),12). occurs(object(robot,12),action(move,(0,-1)),0). occurs(object(robot,12),action(move,(0,-1)),2). occurs(object(robot,12),action(move,(0,-1)),4). occurs(object(robot,12),action(move,(0,-1)),5). occurs(object(robot,12),action(move,(0,-1)),6). occurs(object(robot,12),action(move,(0,-1)),7). occurs(object(robot,12),action(move,(0,-1)),12). occurs(object(robot,12),action(move,(0,-1)),13). occurs(object(robot,12),action(move,(0,-1)),15). occurs(object(robot,13),action(move,(0,-1)),0). occurs(object(robot,13),action(move,(0,-1)),3). occurs(object(robot,13),action(move,(0,-1)),4). occurs(object(robot,13),action(move,(0,-1)),21). occurs(object(robot,14),action(move,(0,-1)),3). occurs(object(robot,14),action(move,(0,-1)),4). occurs(object(robot,14),action(move,(0,-1)),7). occurs(object(robot,14),action(move,(0,-1)),9). occurs(object(robot,14),action(move,(0,-1)),12). occurs(object(robot,14),action(move,(0,-1)),13). occurs(object(robot,14),action(move,(0,-1)),20). occurs(object(robot,14),action(move,(0,-1)),22). occurs(object(robot,14),action(move,(0,-1)),24). occurs(object(robot,15),action(move,(0,-1)),0). occurs(object(robot,15),action(move,(0,-1)),1). occurs(object(robot,15),action(move,(0,-1)),2). occurs(object(robot,15),action(move,(0,-1)),3). occurs(object(robot,15),action(move,(0,-1)),5). occurs(object(robot,15),action(move,(0,-1)),6). occurs(object(robot,15),action(move,(0,-1)),7). occurs(object(robot,15),action(move,(0,-1)),17). occurs(object(robot,16),action(move,(0,-1)),11). occurs(object(robot,16),action(move,(0,-1)),13). occurs(object(robot,16),action(move,(0,-1)),14). occurs(object(robot,17),action(move,(0,-1)),4). occurs(object(robot,17),action(move,(0,-1)),6). occurs(object(robot,17),action(move,(0,-1)),7). occurs(object(robot,17),action(move,(0,-1)),9). occurs(object(robot,18),action(move,(0,-1)),4). occurs(object(robot,18),action(move,(0,-1)),14). occurs(object(robot,18),action(move,(0,-1)),15). occurs(object(robot,19),action(move,(0,-1)),2). occurs(object(robot,19),action(move,(0,-1)),4). occurs(object(robot,19),action(move,(0,-1)),7). occurs(object(robot,19),action(move,(0,-1)),13). occurs(object(robot,19),action(move,(0,-1)),18). occurs(object(robot,19),action(move,(0,-1)),19). occurs(object(robot,19),action(move,(0,-1)),20). occurs(object(robot,19),action(move,(0,-1)),21). occurs(object(robot,19),action(move,(0,-1)),24). occurs(object(robot,20),action(move,(0,-1)),8). occurs(object(robot,20),action(move,(0,-1)),23). occurs(object(robot,1),action(move,(-1,0)),16). occurs(object(robot,1),action(move,(-1,0)),21). occurs(object(robot,2),action(move,(-1,0)),8). occurs(object(robot,2),action(move,(-1,0)),9). occurs(object(robot,2),action(move,(-1,0)),13). occurs(object(robot,2),action(move,(-1,0)),14). occurs(object(robot,2),action(move,(-1,0)),15). occurs(object(robot,2),action(move,(-1,0)),17). occurs(object(robot,2),action(move,(-1,0)),19). occurs(object(robot,2),action(move,(-1,0)),20). occurs(object(robot,3),action(move,(-1,0)),16). occurs(object(robot,3),action(move,(-1,0)),22). occurs(object(robot,4),action(move,(-1,0)),18). occurs(object(robot,4),action(move,(-1,0)),19). occurs(object(robot,4),action(move,(-1,0)),21). occurs(object(robot,5),action(move,(-1,0)),0). occurs(object(robot,5),action(move,(-1,0)),1). occurs(object(robot,5),action(move,(-1,0)),7). occurs(object(robot,5),action(move,(-1,0)),8). occurs(object(robot,5),action(move,(-1,0)),12). occurs(object(robot,5),action(move,(-1,0)),14). occurs(object(robot,5),action(move,(-1,0)),15). occurs(object(robot,5),action(move,(-1,0)),16). occurs(object(robot,5),action(move,(-1,0)),18). occurs(object(robot,6),action(move,(-1,0)),6). occurs(object(robot,6),action(move,(-1,0)),7). occurs(object(robot,6),action(move,(-1,0)),11). occurs(object(robot,6),action(move,(-1,0)),14). occurs(object(robot,6),action(move,(-1,0)),15). occurs(object(robot,6),action(move,(-1,0)),16). occurs(object(robot,6),action(move,(-1,0)),18). occurs(object(robot,6),action(move,(-1,0)),20). occurs(object(robot,6),action(move,(-1,0)),21). occurs(object(robot,7),action(move,(-1,0)),1). occurs(object(robot,7),action(move,(-1,0)),4). occurs(object(robot,7),action(move,(-1,0)),11). occurs(object(robot,7),action(move,(-1,0)),13). occurs(object(robot,7),action(move,(-1,0)),17). occurs(object(robot,7),action(move,(-1,0)),22). occurs(object(robot,7),action(move,(-1,0)),23). occurs(object(robot,7),action(move,(-1,0)),24). occurs(object(robot,8),action(move,(-1,0)),17). occurs(object(robot,8),action(move,(-1,0)),18). occurs(object(robot,9),action(move,(-1,0)),12). occurs(object(robot,9),action(move,(-1,0)),16). occurs(object(robot,9),action(move,(-1,0)),22). occurs(object(robot,10),action(move,(-1,0)),9). occurs(object(robot,11),action(move,(-1,0)),10). occurs(object(robot,12),action(move,(-1,0)),3). occurs(object(robot,12),action(move,(-1,0)),8). occurs(object(robot,12),action(move,(-1,0)),9). occurs(object(robot,12),action(move,(-1,0)),14). occurs(object(robot,12),action(move,(-1,0)),19). occurs(object(robot,12),action(move,(-1,0)),20). occurs(object(robot,12),action(move,(-1,0)),22). occurs(object(robot,12),action(move,(-1,0)),23). occurs(object(robot,12),action(move,(-1,0)),24). occurs(object(robot,14),action(move,(-1,0)),1). occurs(object(robot,14),action(move,(-1,0)),14). occurs(object(robot,15),action(move,(-1,0)),4). occurs(object(robot,15),action(move,(-1,0)),10). occurs(object(robot,15),action(move,(-1,0)),12). occurs(object(robot,15),action(move,(-1,0)),15). occurs(object(robot,15),action(move,(-1,0)),19). occurs(object(robot,15),action(move,(-1,0)),21). occurs(object(robot,15),action(move,(-1,0)),22). occurs(object(robot,15),action(move,(-1,0)),23). occurs(object(robot,15),action(move,(-1,0)),24). occurs(object(robot,16),action(move,(-1,0)),4). occurs(object(robot,16),action(move,(-1,0)),12). occurs(object(robot,16),action(move,(-1,0)),15). occurs(object(robot,16),action(move,(-1,0)),16). occurs(object(robot,16),action(move,(-1,0)),17). occurs(object(robot,16),action(move,(-1,0)),19). occurs(object(robot,16),action(move,(-1,0)),21). occurs(object(robot,16),action(move,(-1,0)),22). occurs(object(robot,16),action(move,(-1,0)),24). occurs(object(robot,17),action(move,(-1,0)),2). occurs(object(robot,17),action(move,(-1,0)),3). occurs(object(robot,17),action(move,(-1,0)),5). occurs(object(robot,17),action(move,(-1,0)),8). occurs(object(robot,17),action(move,(-1,0)),18). occurs(object(robot,17),action(move,(-1,0)),19). occurs(object(robot,17),action(move,(-1,0)),21). occurs(object(robot,17),action(move,(-1,0)),23). occurs(object(robot,17),action(move,(-1,0)),24). occurs(object(robot,18),action(move,(-1,0)),1). occurs(object(robot,18),action(move,(-1,0)),7). occurs(object(robot,18),action(move,(-1,0)),8). occurs(object(robot,18),action(move,(-1,0)),11). occurs(object(robot,18),action(move,(-1,0)),16). occurs(object(robot,18),action(move,(-1,0)),17). occurs(object(robot,18),action(move,(-1,0)),18). occurs(object(robot,18),action(move,(-1,0)),20). occurs(object(robot,18),action(move,(-1,0)),22). occurs(object(robot,18),action(move,(-1,0)),23). occurs(object(robot,19),action(move,(-1,0)),14). occurs(object(robot,20),action(move,(-1,0)),7). occurs(object(robot,20),action(move,(-1,0)),12). occurs(object(robot,20),action(move,(-1,0)),13). occurs(object(robot,20),action(move,(-1,0)),14). occurs(object(robot,20),action(move,(-1,0)),16). occurs(object(robot,20),action(move,(-1,0)),18). occurs(object(robot,20),action(move,(-1,0)),19). occurs(object(robot,20),action(move,(-1,0)),21). occurs(object(robot,1),action(move,(0,1)),6). occurs(object(robot,1),action(move,(0,1)),9). occurs(object(robot,1),action(move,(0,1)),13). occurs(object(robot,1),action(move,(0,1)),17). occurs(object(robot,1),action(move,(0,1)),18). occurs(object(robot,1),action(move,(0,1)),19). occurs(object(robot,1),action(move,(0,1)),24). occurs(object(robot,2),action(move,(0,1)),0). occurs(object(robot,2),action(move,(0,1)),4). occurs(object(robot,2),action(move,(0,1)),5). occurs(object(robot,2),action(move,(0,1)),6). occurs(object(robot,2),action(move,(0,1)),7). occurs(object(robot,2),action(move,(0,1)),10). occurs(object(robot,2),action(move,(0,1)),16). occurs(object(robot,2),action(move,(0,1)),18). occurs(object(robot,2),action(move,(0,1)),21). occurs(object(robot,2),action(move,(0,1)),22). occurs(object(robot,3),action(move,(0,1)),13). occurs(object(robot,3),action(move,(0,1)),17). occurs(object(robot,3),action(move,(0,1)),21). occurs(object(robot,4),action(move,(0,1)),10). occurs(object(robot,4),action(move,(0,1)),17). occurs(object(robot,5),action(move,(0,1)),19). occurs(object(robot,5),action(move,(0,1)),24). occurs(object(robot,6),action(move,(0,1)),0). occurs(object(robot,6),action(move,(0,1)),5). occurs(object(robot,6),action(move,(0,1)),8). occurs(object(robot,6),action(move,(0,1)),9). occurs(object(robot,6),action(move,(0,1)),17). occurs(object(robot,6),action(move,(0,1)),19). occurs(object(robot,6),action(move,(0,1)),22). occurs(object(robot,6),action(move,(0,1)),23). occurs(object(robot,7),action(move,(0,1)),10). occurs(object(robot,7),action(move,(0,1)),16). occurs(object(robot,7),action(move,(0,1)),18). occurs(object(robot,8),action(move,(0,1)),14). occurs(object(robot,8),action(move,(0,1)),19). occurs(object(robot,9),action(move,(0,1)),18). occurs(object(robot,10),action(move,(0,1)),12). occurs(object(robot,10),action(move,(0,1)),17). occurs(object(robot,10),action(move,(0,1)),18). occurs(object(robot,10),action(move,(0,1)),19). occurs(object(robot,10),action(move,(0,1)),20). occurs(object(robot,10),action(move,(0,1)),22). occurs(object(robot,10),action(move,(0,1)),23). occurs(object(robot,10),action(move,(0,1)),24). occurs(object(robot,11),action(move,(0,1)),1). occurs(object(robot,11),action(move,(0,1)),9). occurs(object(robot,11),action(move,(0,1)),15). occurs(object(robot,11),action(move,(0,1)),17). occurs(object(robot,11),action(move,(0,1)),18). occurs(object(robot,11),action(move,(0,1)),19). occurs(object(robot,11),action(move,(0,1)),21). occurs(object(robot,11),action(move,(0,1)),22). occurs(object(robot,11),action(move,(0,1)),23). occurs(object(robot,12),action(move,(0,1)),21). occurs(object(robot,13),action(move,(0,1)),11). occurs(object(robot,13),action(move,(0,1)),12). occurs(object(robot,13),action(move,(0,1)),15). occurs(object(robot,13),action(move,(0,1)),16). occurs(object(robot,13),action(move,(0,1)),17). occurs(object(robot,13),action(move,(0,1)),18). occurs(object(robot,13),action(move,(0,1)),20). occurs(object(robot,13),action(move,(0,1)),22). occurs(object(robot,13),action(move,(0,1)),24). occurs(object(robot,14),action(move,(0,1)),17). occurs(object(robot,14),action(move,(0,1)),18). occurs(object(robot,15),action(move,(0,1)),16). occurs(object(robot,15),action(move,(0,1)),18). occurs(object(robot,16),action(move,(0,1)),0). occurs(object(robot,16),action(move,(0,1)),1). occurs(object(robot,16),action(move,(0,1)),2). occurs(object(robot,16),action(move,(0,1)),3). occurs(object(robot,16),action(move,(0,1)),7). occurs(object(robot,16),action(move,(0,1)),8). occurs(object(robot,16),action(move,(0,1)),10). occurs(object(robot,16),action(move,(0,1)),18). occurs(object(robot,16),action(move,(0,1)),20). occurs(object(robot,16),action(move,(0,1)),23). occurs(object(robot,17),action(move,(0,1)),0). occurs(object(robot,17),action(move,(0,1)),1). occurs(object(robot,17),action(move,(0,1)),10). occurs(object(robot,17),action(move,(0,1)),13). occurs(object(robot,17),action(move,(0,1)),14). occurs(object(robot,17),action(move,(0,1)),15). occurs(object(robot,17),action(move,(0,1)),17). occurs(object(robot,17),action(move,(0,1)),20). occurs(object(robot,17),action(move,(0,1)),22). occurs(object(robot,18),action(move,(0,1)),0). occurs(object(robot,18),action(move,(0,1)),2). occurs(object(robot,18),action(move,(0,1)),6). occurs(object(robot,18),action(move,(0,1)),9). occurs(object(robot,18),action(move,(0,1)),10). occurs(object(robot,18),action(move,(0,1)),19). occurs(object(robot,18),action(move,(0,1)),21). occurs(object(robot,18),action(move,(0,1)),24). occurs(object(robot,19),action(move,(0,1)),12). occurs(object(robot,19),action(move,(0,1)),15). occurs(object(robot,19),action(move,(0,1)),23). occurs(object(robot,20),action(move,(0,1)),0). occurs(object(robot,20),action(move,(0,1)),1). occurs(object(robot,20),action(move,(0,1)),2). occurs(object(robot,20),action(move,(0,1)),3). occurs(object(robot,20),action(move,(0,1)),10). occurs(object(robot,20),action(move,(0,1)),11). occurs(object(robot,20),action(move,(0,1)),15). occurs(object(robot,20),action(move,(0,1)),17). occurs(object(robot,20),action(move,(0,1)),20). occurs(object(robot,1),action(move,(1,0)),1). occurs(object(robot,1),action(move,(1,0)),2). occurs(object(robot,1),action(move,(1,0)),3). occurs(object(robot,1),action(move,(1,0)),4). occurs(object(robot,1),action(move,(1,0)),5). occurs(object(robot,1),action(move,(1,0)),8). occurs(object(robot,1),action(move,(1,0)),10). occurs(object(robot,1),action(move,(1,0)),15). occurs(object(robot,1),action(move,(1,0)),20). occurs(object(robot,1),action(move,(1,0)),23). occurs(object(robot,2),action(move,(1,0)),23). occurs(object(robot,3),action(move,(1,0)),1). occurs(object(robot,3),action(move,(1,0)),3). occurs(object(robot,3),action(move,(1,0)),4). occurs(object(robot,3),action(move,(1,0)),6). occurs(object(robot,3),action(move,(1,0)),8). occurs(object(robot,3),action(move,(1,0)),9). occurs(object(robot,3),action(move,(1,0)),11). occurs(object(robot,3),action(move,(1,0)),12). occurs(object(robot,3),action(move,(1,0)),14). occurs(object(robot,3),action(move,(1,0)),18). occurs(object(robot,3),action(move,(1,0)),23). occurs(object(robot,4),action(move,(1,0)),1). occurs(object(robot,4),action(move,(1,0)),2). occurs(object(robot,4),action(move,(1,0)),4). occurs(object(robot,4),action(move,(1,0)),6). occurs(object(robot,4),action(move,(1,0)),7). occurs(object(robot,4),action(move,(1,0)),9). occurs(object(robot,4),action(move,(1,0)),11). occurs(object(robot,4),action(move,(1,0)),13). occurs(object(robot,5),action(move,(1,0)),2). occurs(object(robot,6),action(move,(1,0)),10). occurs(object(robot,7),action(move,(1,0)),12). occurs(object(robot,7),action(move,(1,0)),14). occurs(object(robot,8),action(move,(1,0)),3). occurs(object(robot,8),action(move,(1,0)),4). occurs(object(robot,8),action(move,(1,0)),5). occurs(object(robot,8),action(move,(1,0)),7). occurs(object(robot,8),action(move,(1,0)),9). occurs(object(robot,8),action(move,(1,0)),10). occurs(object(robot,8),action(move,(1,0)),12). occurs(object(robot,8),action(move,(1,0)),13). occurs(object(robot,8),action(move,(1,0)),15). occurs(object(robot,8),action(move,(1,0)),20). occurs(object(robot,8),action(move,(1,0)),22). occurs(object(robot,9),action(move,(1,0)),2). occurs(object(robot,9),action(move,(1,0)),3). occurs(object(robot,9),action(move,(1,0)),5). occurs(object(robot,9),action(move,(1,0)),7). occurs(object(robot,9),action(move,(1,0)),8). occurs(object(robot,9),action(move,(1,0)),15). occurs(object(robot,9),action(move,(1,0)),21). occurs(object(robot,9),action(move,(1,0)),24). occurs(object(robot,10),action(move,(1,0)),0). occurs(object(robot,10),action(move,(1,0)),1). occurs(object(robot,10),action(move,(1,0)),2). occurs(object(robot,10),action(move,(1,0)),3). occurs(object(robot,10),action(move,(1,0)),7). occurs(object(robot,10),action(move,(1,0)),11). occurs(object(robot,10),action(move,(1,0)),13). occurs(object(robot,10),action(move,(1,0)),21). occurs(object(robot,11),action(move,(1,0)),0). occurs(object(robot,11),action(move,(1,0)),5). occurs(object(robot,11),action(move,(1,0)),6). occurs(object(robot,11),action(move,(1,0)),11). occurs(object(robot,11),action(move,(1,0)),14). occurs(object(robot,11),action(move,(1,0)),16). occurs(object(robot,11),action(move,(1,0)),20). occurs(object(robot,11),action(move,(1,0)),24). occurs(object(robot,12),action(move,(1,0)),16). occurs(object(robot,12),action(move,(1,0)),17). occurs(object(robot,13),action(move,(1,0)),5). occurs(object(robot,13),action(move,(1,0)),6). occurs(object(robot,13),action(move,(1,0)),7). occurs(object(robot,13),action(move,(1,0)),8). occurs(object(robot,13),action(move,(1,0)),9). occurs(object(robot,13),action(move,(1,0)),10). occurs(object(robot,13),action(move,(1,0)),13). occurs(object(robot,13),action(move,(1,0)),19). occurs(object(robot,14),action(move,(1,0)),5). occurs(object(robot,14),action(move,(1,0)),6). occurs(object(robot,14),action(move,(1,0)),8). occurs(object(robot,14),action(move,(1,0)),10). occurs(object(robot,14),action(move,(1,0)),11). occurs(object(robot,14),action(move,(1,0)),15). occurs(object(robot,14),action(move,(1,0)),16). occurs(object(robot,14),action(move,(1,0)),19). occurs(object(robot,14),action(move,(1,0)),21). occurs(object(robot,15),action(move,(1,0)),11). occurs(object(robot,15),action(move,(1,0)),14). occurs(object(robot,16),action(move,(1,0)),5). occurs(object(robot,16),action(move,(1,0)),6). occurs(object(robot,16),action(move,(1,0)),9). occurs(object(robot,17),action(move,(1,0)),11). occurs(object(robot,18),action(move,(1,0)),5). occurs(object(robot,18),action(move,(1,0)),13). occurs(object(robot,19),action(move,(1,0)),0). occurs(object(robot,19),action(move,(1,0)),1). occurs(object(robot,19),action(move,(1,0)),3). occurs(object(robot,19),action(move,(1,0)),5). occurs(object(robot,19),action(move,(1,0)),6). occurs(object(robot,19),action(move,(1,0)),8). occurs(object(robot,19),action(move,(1,0)),9). occurs(object(robot,19),action(move,(1,0)),11). occurs(object(robot,19),action(move,(1,0)),16). occurs(object(robot,20),action(move,(1,0)),4). occurs(object(robot,20),action(move,(1,0)),5).
%COST 6
% 
% Models         : 1+
%   Optimum      : unknown
% Optimization   : 6
% Calls          : 1
% Time           : 58.986s (Solving: 57.76s 1st Model: 57.76s Unsat: 0.00s)
% CPU Time       : 57.359s
